c Maximum weighted clique instances generated from exactcolors.
c cutoff: 13944699.
c A clique of value > scalef (13944699) defines an improving stable sets for coloring.
p edge 15 35
e 1 8
e 1 15
e 2 9
e 2 15
e 3 10
e 3 15
e 4 11
e 4 15
e 5 12
e 5 15
e 6 13
e 6 15
e 7 14
e 7 15
e 8 9
e 8 10
e 8 11
e 8 12
e 8 13
e 8 14
e 9 10
e 9 11
e 9 12
e 9 13
e 9 14
e 10 11
e 10 12
e 10 13
e 10 14
e 11 12
e 11 13
e 11 14
e 12 13
e 12 14
e 13 14
n 1 11952599
n 2 11952599
n 3 11952599
n 4 11952599
n 5 11952599
n 6 11952599
n 7 11952599
n 8 1992099
n 9 1992099
n 10 1992099
n 11 1992099
n 12 1992099
n 13 1992099
n 14 1992099
n 15 1992099
